(set-logic QF_BV)
(declare-fun _substvar_164_ () (_ BitVec 64))
(declare-fun _substvar_212_ () (_ BitVec 64))
(declare-fun _substvar_165_ () (_ BitVec 64))
(assert (= true (bvslt _substvar_164_ (_ bv0 64))))
(assert (= _substvar_165_ (bvsub _substvar_164_ (_ bv0 64))))
(assert (= (_ bv0 64) (bvudiv _substvar_165_ _substvar_212_)))
(check-sat)
(exit)
